************************************************************************
file with basedata            : 
initial value random generator: 
************************************************************************
projects                      :  1
jobs (incl. supersource/sink ):  52
horizon                       :  250
RESOURCES
  - renewable                 :  4   R
  - nonrenewable              :  0   N
  - doubly constrained        :  0   D
************************************************************************
PROJECT INFORMATION:
pronr.  #jobs rel.date duedate tardcost  MPM-Time
	1     50      0       10        1       10
************************************************************************
PRECEDENCE RELATIONS:
jobnr.    #modes  #successors   successors
   1        1          8           2   3   4   5   6   7   8   9 
   2        1          7          10  11  12  13  14  15  16 
   3        1          1          17 
   4        1          5          18  19  20  21  22 
   5        1          3          24  25  26 
   6        1          6          29  30  31  32  33  34 
   7        1          4          37  38  39  40 
   8        1          4          43  44  45  46 
   9        1          2          49  50 
  10        1          5          18  19  20  21  22 
  11        1          3          24  25  26 
  12        1          6          29  30  31  32  33  34 
  13        1          4          37  38  39  40 
  14        1          4          43  44  45  46 
  15        1          2          49  50 
  16        1          1          52 
  17        1          5          18  19  20  21  22 
  18        1          1          23 
  19        1          3          24  25  26 
  20        1          6          29  30  31  32  33  34 
  21        1          4          37  38  39  40 
  22        1          1          52 
  23        1          3          24  25  26 
  24        1          1          27 
  25        1          1          28 
  26        1          1          52 
  27        1          6          29  30  31  32  33  34 
  28        1          6          29  30  31  32  33  34 
  29        1          1          35 
  30        1          1          36 
  31        1          4          37  38  39  40 
  32        1          4          43  44  45  46 
  33        1          2          49  50 
  34        1          1          52 
  35        1          4          37  38  39  40 
  36        1          4          37  38  39  40 
  37        1          1          41 
  38        1          1          42 
  39        1          4          43  44  45  46 
  40        1          1          52 
  41        1          4          43  44  45  46 
  42        1          4          43  44  45  46 
  43        1          1          47 
  44        1          1          48 
  45        1          2          49  50 
  46        1          1          52 
  47        1          2          49  50 
  48        1          2          49  50 
  49        1          1          51 
  50        1          1          52 
  51        1          1          52 
  52        1          0         
************************************************************************
REQUESTS/DURATIONS:
jobnr. mode duration  R 1  R 2  R 3  R 4
------------------------------------------------------------------------
  1      1     0       0    0    0    0
  2      1     7       3    0    0    1
  3      1     2       0    0    2    0
  4      1     2       0    3    0    1
  5      1     4       0    9    0    2
  6      1     7       0    0    0    0
  7      1     7       0    0    0    0
  8      1     4       0    0    0    0
  9      1     5       0    0    0    0
 10      1     3      10    0    6    2
 11      1     8       0    0    4    9
 12      1     2       0    0    0    3
 13      1     9       0    0    0    2
 14      1     3       0    0    6    0
 15      1     3       7    4    0    0
 16      1     6       0   10    5    0
 17      1     6       0    0    0    5
 18      1     2       8    0    7    8
 19      1     4       0    0    7   10
 20      1     3       5    0    2    0
 21      1     2       4    0    0    6
 22      1     7       0    2    1    1
 23      1     5       0    5    0    4
 24      1     9       5    0    1    0
 25      1     8       8    4    3    1
 26      1     4       0    9   10    0
 27      1     2       0    0    5    7
 28      1     3      10    5   10    5
 29      1     2       0    2    0    0
 30      1     6       6    0    0    9
 31      1     4      10    4    0    0
 32      1     1       0    0    2    0
 33      1     4       0    8   10    0
 34      1     5       8    1    3    6
 35      1     7       9    8    3    8
 36      1     9       0    0   10    0
 37      1     2       0    9    5    0
 38      1     1       7    0    0    9
 39      1     7       5    0    0    0
 40      1     3       0    0    0    0
 41      1     6       0    0    2    0
 42      1     6       0    0   10    5
 43      1     7       4    1    0    7
 44      1     4       0    1    1    1
 45      1     8       5    0    0    0
 46      1     8       0   10    0    0
 47      1     3       4    9    9   10
 48      1    10       3    5    6    4
 49      1     9       0    0    6   10
 50      1     4       0    9    0    5
 51      1     7       9    0    0    0
 52      1     0       0    0    0    0
************************************************************************
RESOURCEAVAILABILITIES:
  R 1  R 2  R 3  R 4
   12   19   14   16
************************************************************************
